NAME : tsp25_27.164.tour
COMMENT : Length = 164
COMMENT : Found by LKH [Keld Helsgaun]
TYPE : TOUR
DIMENSION : 25
TOUR_SECTION
1
10
25
22
7
9
11
17
6
8
5
2
18
21
16
19
20
23
14
4
3
15
24
12
13
-1
EOF
